p wcnf 181 213 214 
1 84 -124 0 
1 -169 52 0 
1 84 123 0 
1 -134 -25 0 
1 61 29 0 
1 -27 -170 0 
1 173 -135 0 
1 -12 -179 0 
1 -14 129 0 
1 67 -22 0 
1 41 -54 0 
1 115 102 0 
1 115 71 0 
1 -81 34 0 
1 130 -94 0 
1 -136 163 0 
1 82 68 0 
1 -10 -180 0 
1 21 97 0 
1 128 -154 0 
1 157 -7 0 
1 -9 -180 0 
1 176 141 0 
1 -120 12 0 
1 127 35 0 
1 -116 126 0 
1 151 -102 0 
1 43 2 0 
1 106 -167 0 
1 13 116 0 
1 -96 179 0 
1 -168 171 0 
1 170 96 0 
1 -131 -70 0 
1 -23 4 0 
1 -151 54 0 
1 -131 32 0 
1 75 -86 0 
1 126 115 0 
1 -129 -31 0 
1 81 -47 0 
1 -84 45 0 
1 -159 -146 0 
1 140 167 0 
1 -69 -171 0 
1 13 -154 0 
1 120 169 0 
1 -106 -5 0 
1 -62 -77 0 
1 154 59 0 
1 -121 82 0 
1 -102 -110 0 
1 11 172 0 
1 113 -18 0 
1 -30 -117 0 
1 -21 -10 0 
1 -54 -14 0 
1 -66 142 0 
1 159 -106 0 
1 -30 150 0 
1 72 -2 0 
1 -175 -56 0 
1 153 -47 0 
1 113 47 0 
1 73 157 0 
1 -159 153 0 
1 112 62 0 
1 52 95 0 
1 -11 156 0 
1 -88 -171 0 
1 127 76 0 
1 -2 166 0 
1 11 -145 0 
1 -80 119 0 
1 61 -87 0 
1 132 165 0 
1 -118 48 0 
1 146 162 0 
1 -56 10 0 
1 33 -156 0 
1 -107 -87 0 
1 -44 159 0 
1 -105 -35 0 
1 20 181 0 
1 -66 116 0 
1 -3 -86 0 
1 -9 -82 0 
1 37 -46 0 
1 100 -140 0 
1 -132 38 0 
1 84 -27 0 
1 -158 122 0 
1 -14 136 0 
1 -60 172 0 
1 -134 91 0 
1 -142 104 0 
1 54 22 0 
1 -12 -138 0 
1 -137 -76 0 
1 5 168 0 
1 -44 -42 0 
1 63 -91 0 
1 -180 103 0 
1 8 -122 0 
1 -87 -96 0 
1 44 -28 0 
1 59 -151 0 
1 -121 4 0 
1 -71 -74 0 
1 3 121 0 
1 9 -139 0 
1 21 70 0 
1 104 73 0 
1 173 9 0 
1 72 128 0 
1 123 -11 0 
1 -50 -175 0 
1 119 122 0 
1 40 17 0 
1 158 -159 0 
1 -8 -90 0 
1 -103 -33 0 
1 -98 154 0 
1 173 64 0 
1 -58 166 0 
1 86 159 0 
1 110 -79 0 
1 33 -56 0 
1 131 -134 0 
1 3 102 0 
1 -64 170 0 
1 -60 11 0 
1 38 8 0 
1 -123 -93 0 
1 175 40 0 
1 142 136 0 
1 -105 -176 0 
1 135 125 0 
1 137 -52 0 
1 138 -181 0 
1 146 -25 0 
1 -144 -14 0 
1 -108 24 0 
1 78 141 0 
1 180 117 0 
1 93 150 0 
1 -21 -57 0 
1 87 109 0 
1 -177 -78 0 
1 -173 -178 0 
1 -161 68 0 
1 -158 -94 0 
1 -117 171 0 
1 26 -32 0 
1 -126 -120 0 
1 -34 -62 0 
1 158 54 0 
1 123 26 0 
1 -33 -165 0 
1 1 15 0 
1 -67 148 0 
1 -122 107 0 
1 -148 -78 0 
1 15 -12 0 
1 -37 -126 0 
1 -170 114 0 
1 -42 -152 0 
1 -98 -136 0 
1 109 -125 0 
1 -114 115 0 
1 -143 65 0 
1 -27 23 0 
1 -150 176 0 
1 37 154 0 
1 139 -59 0 
1 51 5 0 
1 -119 -33 0 
1 -146 66 0 
1 121 -136 0 
1 133 22 0 
1 156 -9 0 
1 71 42 0 
1 -39 -106 0 
1 148 133 0 
1 -98 45 0 
1 -2 152 0 
1 107 60 0 
1 133 54 0 
1 -14 47 0 
1 22 167 0 
1 -116 -145 0 
1 167 78 0 
1 -137 -21 0 
1 119 -62 0 
1 -2 -119 0 
1 -26 -172 0 
1 128 21 0 
1 138 151 0 
1 -30 -149 0 
1 93 152 0 
1 -48 -85 0 
1 -5 -86 0 
1 -56 28 0 
1 -102 -158 0 
1 -152 166 0 
1 40 5 0 
1 163 123 0 
1 39 -101 0 
1 63 -58 0 
1 40 160 0 
1 69 114 0 
1 17 -148 0 
1 -167 92 0 
